files/upTests/tupley12-3/0001.eprime.solution
language ESSENCE' 1.0
$ minion Nodes: 1
$ minion TotalTime: 0.000471
$ Savile Row TotalTime: 0.143
letting pain_tuple1 be [5, 5]
letting pain_tuple2 be [8, 8]
letting pain_tuple3 be [9, 9]
letting pain_tuple4 be [10, 10]
letting pain_tuple5 be [11, 11]
letting pain_tuple6 be [12, 12]
